
  22    4
  10   10   10   10

   0   0   0   0   0   8 2 3 4 5 6 7 8 9 
   2  10  10  10  10   3 12 11 10 
   1  10  10  10  10   3 13 12 11 
   4  10  10  10  10   5 21 20 18 13 12 
   8  10  10  10  10   4 21 18 13 12 
   9  10  10  10  10   3 15 12 11 
   3  10  10  10  10   3 19 13 11 
  10  10  10  10  10   2 20 10 
   5  10  10  10  10   2 14 11 
   2  10  10  10  10   3 19 18 13 
   2  10  10  10  10   4 21 20 18 17 
   1  10  10  10  10   2 19 16 
   1  10  10  10  10   1 14 
   1  10  10  10  10   1 15 
   6  10  10  10  10   1 17 
   6  10  10  10  10   1 17 
   2  10  10  10  10   1 22
   6  10  10  10  10   1 22
   8  10  10  10  10   1 22
   2  10  10  10  10   1 22
   6  10  10  10  10   1 22
   0   0   0   0   0   0 
